p cnf 973 2313
-923 0
-25 0
-890 0
-883 0
-904 0
-903 0
-710 0
-255 0
-265 0
-617 0
305 0
-884 0
-345 0
-355 0
-375 0
-795 0
-630 0
-821 0
-816 0
-902 0
-911 0
-605 0
-1 -21 0
-2 -972 0
-2 -32 0
-3 -969 0
-3 -33 0
-4 -34 0
-4 -84 0
-4 -806 0
-5 -904 0
-5 -864 0
-5 -744 0
-928 -26 0
-928 -794 0
-6 -809 0
-928 -707 0
-6 -742 0
-7 -834 0
-7 -619 0
-7 -635 0
-7 -722 0
-8 -768 0
-8 -28 0
-8 -612 0
-8 -634 0
-8 -714 0
-9 -754 0
-9 -669 0
-9 -622 0
-10 -250 0
-10 -260 0
-699 -639 0
-699 -300 0
-611 -500 0
-611 -708 0
-611 -637 0
-11 -21 0
-11 -51 0
-12 -62 0
-12 -112 0
-969 -33 0
-969 -933 0
-13 -835 0
-13 -889 0
-14 -44 0
-14 -184 0
-14 -294 0
-15 -25 0
-923 -890 0
-15 -95 0
-923 -778 0
-923 -215 0
-15 -617 0
-16 -846 0
-16 -644 0
-17 -804 0
-834 -635 0
-834 -167 0
-17 -277 0
-17 -387 0
-17 -477 0
-17 -784 0
-18 -48 0
-18 -800 0
-768 -258 0
-768 -711 0
-754 -669 0
-774 -49 0
-774 -99 0
-774 -169 0
-754 -259 0
-754 -663 0
-720 -330 0
-20 -340 0
-720 -350 0
-638 -732 0
-638 -440 0
-638 -450 0
-21 -31 0
-21 -61 0
-972 -32 0
-972 -52 0
-22 -955 0
-22 -951 0
-23 -63 0
-23 -943 0
-24 -114 0
-24 -144 0
-25 -778 0
-25 -780 0
-25 -775 0
-25 -853 0
-25 -787 0
-26 -794 0
-26 -176 0
-27 -37 0
-27 -648 0
-28 -634 0
-28 -792 0
-28 -629 0
-28 -656 0
-29 -59 0
-29 -109 0
-29 -696 0
-30 -150 0
-30 -725 0
-31 -71 0
-32 -72 0
-32 -957 0
-33 -935 0
-33 -918 0
-34 -806 0
-34 -844 0
-34 -832 0
-35 -85 0
-35 -786 0
-36 -76 0
-36 -126 0
-36 -246 0
-36 -757 0
-36 -752 0
-37 -57 0
-37 -804 0
-825 -790 0
-825 -619 0
-37 -347 0
-37 -716 0
-37 -679 0
-782 -612 0
-782 -741 0
-38 -797 0
-782 -714 0
-38 -248 0
-39 -159 0
-669 -359 0
-669 -622 0
-669 -753 0
-40 -70 0
-718 -90 0
-718 -140 0
-623 -683 0
-623 -736 0
-623 -671 0
-41 -51 0
-41 -101 0
-42 -955 0
-42 -102 0
-43 -113 0
-43 -826 0
-926 -873 0
-926 -124 0
-44 -920 0
-926 -839 0
-44 -642 0
-890 -904 0
-45 -903 0
-45 -625 0
-45 -755 0
-46 -96 0
-872 -814 0
-872 -644 0
-47 -97 0
-48 -800 0
-49 -99 0
-49 -169 0
-50 -80 0
-50 -664 0
-50 -700 0
-51 -61 0
-51 -111 0
-52 -968 0
-52 -112 0
-52 -951 0
-52 -192 0
-53 -123 0
-54 -94 0
-54 -916 0
-54 -796 0
-54 -174 0
-54 -868 0
-55 -858 0
-55 -775 0
-56 -66 0
-56 -236 0
-56 -820 0
-846 -616 0
-56 -466 0
-56 -536 0
-57 -277 0
-789 -620 0
-57 -577 0
-58 -108 0
-58 -178 0
-59 -109 0
-59 -696 0
-60 -100 0
-61 -71 0
-61 -121 0
-62 -951 0
-62 -957 0
-62 -947 0
-63 -943 0
-63 -937 0
-63 -889 0
-64 -796 0
-64 -878 0
-64 -891 0
-64 -851 0
-64 -404 0
-65 -135 0
-65 -786 0
-829 -246 0
-794 -769 0
-829 -803 0
-794 -738 0
-829 -752 0
-66 -546 0
-67 -760 0
-67 -692 0
-67 -227 0
-719 -278 0
-612 -358 0
-612 -378 0
-68 -398 0
-612 -771 0
-640 -189 0
-640 -658 0
-672 -728 0
-672 -379 0
-613 -469 0
-613 -729 0
-613 -654 0
-71 -81 0
-71 -131 0
-72 -82 0
-72 -122 0
-73 -886 0
-73 -153 0
-73 -918 0
-73 -899 0
-74 -916 0
-74 -796 0
-74 -866 0
-74 -234 0
-74 -631 0
-74 -832 0
-883 -904 0
-75 -778 0
-883 -710 0
-75 -245 0
-75 -746 0
-75 -848 0
-837 -627 0
-76 -176 0
-837 -246 0
-837 -803 0
-76 -346 0
-837 -763 0
-77 -147 0
-781 -836 0
-781 -167 0
-77 -237 0
-781 -702 0
-78 -148 0
-78 -238 0
-634 -792 0
-634 -358 0
-741 -629 0
-634 -759 0
-634 -765 0
-741 -588 0
-79 -319 0
-79 -399 0
-80 -664 0
-80 -700 0
-81 -141 0
-82 -132 0
-83 -133 0
-83 -213 0
-83 -323 0
-84 -806 0
-84 -214 0
-84 -891 0
-84 -324 0
-904 -710 0
-904 -744 0
-86 -156 0
-87 -157 0
-88 -158 0
-89 -770 0
-89 -249 0
-664 -700 0
-90 -140 0
-91 -101 0
-91 -171 0
-92 -112 0
-92 -182 0
-93 -933 0
-93 -886 0
-93 -163 0
-94 -174 0
-94 -867 0
-94 -806 0
-94 -264 0
-95 -165 0
-903 -755 0
-903 -255 0
-95 -455 0
-98 -168 0
-99 -169 0
-101 -111 0
-101 -181 0
-968 -112 0
-102 -122 0
-102 -172 0
-968 -956 0
-102 -942 0
-103 -193 0
-916 -796 0
-104 -892 0
-910 -920 0
-104 -807 0
-105 -175 0
-105 -840 0
-707 -828 0
-106 -236 0
-707 -811 0
-106 -615 0
-814 -616 0
-106 -536 0
-107 -177 0
-790 -267 0
-108 -178 0
-109 -696 0
-110 -645 0
-110 -670 0
-110 -701 0
-111 -121 0
-111 -191 0
-112 -202 0
-113 -143 0
-113 -203 0
-113 -914 0
-796 -866 0
-114 -224 0
-114 -642 0
-873 -631 0
-114 -832 0
-114 -394 0
-114 -830 0
-114 -474 0
-115 -756 0
-115 -657 0
-845 -265 0
-845 -375 0
-845 -641 0
-858 -822 0
-116 -186 0
-116 -740 0
-117 -187 0
-117 -614 0
-118 -188 0
-118 -208 0
-119 -726 0
-119 -219 0
-119 -229 0
-120 -130 0
-120 -310 0
-121 -131 0
-121 -201 0
-951 -132 0
-951 -142 0
-122 -192 0
-122 -947 0
-951 -212 0
-122 -302 0
-123 -937 0
-123 -153 0
-886 -183 0
-886 -889 0
-835 -907 0
-886 -293 0
-123 -899 0
-123 -403 0
-124 -813 0
-124 -214 0
-125 -205 0
-125 -746 0
-125 -545 0
-126 -216 0
-126 -246 0
-127 -688 0
-127 -417 0
-128 -138 0
-129 -289 0
-129 -299 0
-130 -310 0
-131 -141 0
-131 -211 0
-957 -152 0
-132 -947 0
-132 -212 0
-957 -954 0
-132 -312 0
-935 -153 0
-133 -889 0
-133 -915 0
-133 -824 0
-866 -144 0
-134 -184 0
-866 -234 0
-892 -244 0
-134 -294 0
-866 -776 0
-134 -773 0
-778 -617 0
-842 -884 0
-842 -345 0
-778 -662 0
-842 -618 0
-778 -485 0
-135 -495 0
-135 -555 0
-745 -146 0
-136 -226 0
-745 -811 0
-627 -803 0
-627 -636 0
-745 -850 0
-619 -762 0
-760 -692 0
-760 -227 0
-619 -648 0
-619 -791 0
-739 -357 0
-739 -447 0
-739 -812 0
-137 -857 0
-626 -684 0
-626 -689 0
-717 -308 0
-626 -733 0
-717 -548 0
-139 -279 0
-713 -643 0
-713 -309 0
-645 -670 0
-645 -701 0
-141 -151 0
-141 -221 0
-142 -222 0
-143 -907 0
-143 -213 0
-143 -899 0
-937 -323 0
-143 -917 0
-144 -154 0
-144 -234 0
-144 -776 0
-864 -744 0
-843 -853 0
-145 -235 0
-864 -787 0
-710 -355 0
-145 -495 0
-710 -902 0
-843 -565 0
-146 -861 0
-808 -176 0
-808 -616 0
-808 -556 0
-147 -237 0
-635 -247 0
-148 -238 0
-667 -209 0
-726 -219 0
-726 -229 0
-667 -698 0
-150 -725 0
-670 -701 0
-151 -231 0
-152 -954 0
-152 -232 0
-152 -945 0
-958 -918 0
-958 -223 0
-153 -243 0
-958 -876 0
-154 -806 0
-924 -844 0
-154 -244 0
-924 -334 0
-924 -444 0
-155 -780 0
-155 -225 0
-861 -742 0
-861 -783 0
-861 -416 0
-836 -716 0
-797 -248 0
-770 -249 0
-161 -171 0
-161 -261 0
-162 -272 0
-163 -253 0
-163 -363 0
-164 -174 0
-164 -839 0
-166 -644 0
-166 -276 0
-862 -257 0
-862 -743 0
-170 -280 0
-171 -181 0
-171 -271 0
-172 -956 0
-971 -262 0
-971 -939 0
-172 -942 0
-971 -372 0
-952 -932 0
-173 -973 0
-173 -263 0
-952 -965 0
-920 -264 0
-174 -631 0
-174 -807 0
-175 -840 0
-828 -236 0
-176 -811 0
-828 -616 0
-176 -536 0
-722 -865 0
-762 -257 0
-762 -648 0
-722 -791 0
-762 -852 0
-762 -577 0
-714 -268 0
-714 -676 0
-179 -695 0
-179 -329 0
-180 -190 0
-683 -736 0
-683 -671 0
-181 -191 0
-181 -281 0
-182 -947 0
-956 -939 0
-182 -942 0
-182 -292 0
-182 -382 0
-183 -973 0
-183 -879 0
-183 -877 0
-932 -885 0
-878 -891 0
-184 -284 0
-184 -631 0
-185 -646 0
-840 -325 0
-840 -767 0
-185 -822 0
-186 -740 0
-692 -227 0
-692 -257 0
-187 -614 0
-692 -367 0
-692 -847 0
-692 -577 0
-188 -208 0
-705 -199 0
-705 -239 0
-705 -624 0
-189 -658 0
-721 -200 0
-721 -210 0
-191 -201 0
-191 -291 0
-192 -947 0
-192 -212 0
-192 -282 0
-973 -283 0
-193 -899 0
-193 -914 0
-193 -403 0
-193 -473 0
-194 -751 0
-813 -214 0
-867 -264 0
-813 -274 0
-867 -374 0
-813 -384 0
-194 -464 0
-813 -474 0
-194 -534 0
-195 -235 0
-195 -245 0
-195 -285 0
-195 -747 0
-196 -632 0
-740 -346 0
-740 -436 0
-740 -506 0
-740 -819 0
-197 -307 0
-197 -730 0
-197 -652 0
-684 -689 0
-650 -734 0
-650 -686 0
-650 -478 0
-684 -733 0
-199 -239 0
-199 -624 0
-200 -210 0
-201 -211 0
-201 -301 0
-202 -212 0
-202 -222 0
-947 -292 0
-907 -223 0
-907 -233 0
-915 -826 0
-915 -293 0
-203 -393 0
-203 -403 0
-203 -824 0
-203 -483 0
-204 -244 0
-204 -304 0
-751 -334 0
-751 -906 0
-751 -544 0
-625 -853 0
-756 -245 0
-682 -265 0
-205 -345 0
-682 -375 0
-625 -793 0
-682 -821 0
-625 -854 0
-756 -848 0
-682 -882 0
-205 -555 0
-206 -691 0
-206 -316 0
-207 -727 0
-207 -678 0
-207 -397 0
-689 -733 0
-209 -698 0
-211 -221 0
-211 -311 0
-212 -322 0
-918 -233 0
-213 -303 0
-844 -334 0
-214 -906 0
-214 -554 0
-657 -275 0
-755 -617 0
-215 -315 0
-775 -325 0
-215 -415 0
-657 -425 0
-657 -505 0
-644 -326 0
-742 -750 0
-644 -685 0
-673 -856 0
-216 -596 0
-217 -297 0
-218 -724 0
-218 -488 0
-219 -229 0
-220 -230 0
-736 -671 0
-221 -231 0
-221 -321 0
-954 -232 0
-222 -312 0
-954 -944 0
-222 -945 0
-222 -422 0
-223 -824 0
-223 -917 0
-223 -503 0
-869 -919 0
-869 -674 0
-869 -354 0
-905 -653 0
-905 -444 0
-225 -617 0
-225 -630 0
-227 -857 0
-734 -686 0
-734 -478 0
-231 -241 0
-231 -331 0
-232 -944 0
-232 -342 0
-232 -970 0
-949 -899 0
-949 -909 0
-233 -343 0
-949 -423 0
-234 -631 0
-919 -674 0
-234 -344 0
-919 -354 0
-919 -849 0
-235 -295 0
-236 -336 0
-239 -624 0
-240 -694 0
-240 -290 0
-240 -660 0
-241 -341 0
-242 -332 0
-243 -353 0
-243 -443 0
-245 -335 0
-246 -356 0
-894 -757 0
-894 -636 0
-894 -856 0
-865 -347 0
-247 -716 0
-250 -260 0
-251 -261 0
-252 -262 0
-252 -939 0
-252 -362 0
-253 -879 0
-254 -642 0
-254 -364 0
-254 -454 0
-255 -265 0
-255 -617 0
-255 -795 0
-255 -863 0
-256 -769 0
-256 -900 0
-256 -820 0
-256 -750 0
-257 -852 0
-257 -743 0
-258 -629 0
-258 -711 0
-259 -663 0
-261 -271 0
-261 -361 0
-262 -939 0
-262 -962 0
-263 -936 0
-264 -304 0
-264 -364 0
-264 -922 0
-264 -807 0
-265 -405 0
-265 -863 0
-266 -376 0
-266 -616 0
-266 -536 0
-267 -791 0
-268 -676 0
-269 -665 0
-639 -300 0
-271 -281 0
-271 -371 0
-272 -962 0
-272 -292 0
-272 -946 0
-936 -826 0
-273 -908 0
-273 -303 0
-273 -363 0
-936 -373 0
-273 -885 0
-273 -965 0
-274 -888 0
-274 -785 0
-275 -385 0
-276 -336 0
-769 -900 0
-769 -820 0
-276 -616 0
-276 -752 0
-276 -897 0
-702 -337 0
-702 -347 0
-648 -852 0
-702 -679 0
-702 -827 0
-680 -731 0
-680 -338 0
-680 -647 0
-694 -290 0
-694 -660 0
-281 -291 0
-281 -381 0
-942 -959 0
-942 -302 0
-282 -372 0
-282 -382 0
-962 -462 0
-283 -303 0
-283 -313 0
-283 -373 0
-879 -403 0
-879 -473 0
-888 -785 0
-284 -414 0
-284 -898 0
-285 -747 0
-286 -366 0
-286 -396 0
-286 -576 0
-649 -407 0
-649 -706 0
-649 -487 0
-614 -857 0
-614 -607 0
-288 -712 0
-288 -681 0
-288 -318 0
-289 -299 0
-290 -660 0
-291 -301 0
-291 -391 0
-953 -960 0
-959 -382 0
-292 -392 0
-953 -402 0
-959 -472 0
-293 -383 0
-921 -833 0
-921 -403 0
-293 -824 0
-841 -631 0
-642 -851 0
-758 -324 0
-841 -334 0
-642 -374 0
-294 -384 0
-758 -414 0
-785 -906 0
-642 -925 0
-785 -941 0
-617 -764 0
-617 -385 0
-295 -788 0
-617 -662 0
-646 -859 0
-747 -435 0
-617 -854 0
-646 -485 0
-646 -848 0
-747 -505 0
-646 -545 0
-747 -555 0
-747 -585 0
-296 -306 0
-632 -356 0
-296 -406 0
-632 -446 0
-632 -802 0
-615 -897 0
-632 -606 0
-727 -678 0
-727 -397 0
-712 -681 0
-712 -318 0
-643 -309 0
-301 -311 0
-301 -401 0
-302 -312 0
-302 -950 0
-303 -383 0
-303 -393 0
-303 -473 0
-303 -483 0
-303 -543 0
-631 -851 0
-805 -344 0
-818 -374 0
-631 -868 0
-631 -404 0
-805 -434 0
-304 -464 0
-631 -484 0
-805 -504 0
-818 -534 0
-818 -913 0
-691 -316 0
-306 -406 0
-307 -730 0
-307 -652 0
-681 -318 0
-308 -548 0
-311 -321 0
-311 -411 0
-960 -944 0
-312 -332 0
-960 -402 0
-312 -948 0
-313 -323 0
-313 -914 0
-313 -413 0
-899 -433 0
-313 -881 0
-776 -324 0
-674 -354 0
-776 -394 0
-674 -653 0
-314 -424 0
-776 -880 0
-674 -484 0
-776 -544 0
-674 -554 0
-315 -585 0
-730 -652 0
-678 -397 0
-695 -329 0
-319 -399 0
-320 -668 0
-697 -360 0
-697 -370 0
-320 -380 0
-321 -331 0
-321 -421 0
-322 -961 0
-322 -342 0
-944 -412 0
-322 -422 0
-322 -502 0
-876 -353 0
-323 -896 0
-323 -433 0
-876 -443 0
-909 -503 0
-876 -513 0
-324 -868 0
-895 -434 0
-895 -514 0
-325 -415 0
-326 -685 0
-783 -596 0
-688 -417 0
-731 -338 0
-328 -388 0
-731 -647 0
-330 -350 0
-668 -380 0
-331 -341 0
-331 -431 0
-945 -352 0
-961 -422 0
-332 -432 0
-961 -512 0
-333 -423 0
-884 -345 0
-335 -630 0
-884 -618 0
-884 -902 0
-336 -850 0
-803 -763 0
-336 -596 0
-651 -838 0
-651 -784 0
-651 -679 0
-651 -587 0
-338 -647 0
-723 -675 0
-723 -389 0
-339 -409 0
-723 -419 0
-341 -351 0
-341 -441 0
-342 -352 0
-342 -970 0
-342 -442 0
-345 -777 0
-345 -618 0
-346 -356 0
-346 -856 0
-838 -357 0
-838 -779 0
-348 -358 0
-792 -629 0
-348 -656 0
-348 -765 0
-728 -379 0
-675 -389 0
-675 -419 0
-352 -442 0
-353 -443 0
-355 -902 0
-357 -716 0
-357 -447 0
-357 -779 0
-358 -759 0
-358 -765 0
-359 -622 0
-359 -753 0
-360 -370 0
-361 -371 0
-362 -946 0
-363 -934 0
-363 -965 0
-364 -922 0
-364 -830 0
-364 -925 0
-365 -810 0
-365 -793 0
-927 -455 0
-927 -485 0
-900 -820 0
-366 -655 0
-366 -752 0
-366 -576 0
-367 -633 0
-367 -679 0
-852 -827 0
-368 -458 0
-799 -528 0
-799 -578 0
-369 -459 0
-369 -579 0
-371 -381 0
-371 -451 0
-372 -946 0
-372 -392 0
-922 -830 0
-374 -414 0
-374 -534 0
-375 -748 0
-375 -641 0
-375 -859 0
-375 -545 0
-376 -763 0
-376 -897 0
-376 -586 0
-377 -467 0
-377 -537 0
-378 -771 0
-676 -860 0
-381 -391 0
-381 -461 0
-382 -402 0
-382 -452 0
-946 -462 0
-946 -472 0
-946 -522 0
-383 -413 0
-934 -453 0
-934 -523 0
-384 -414 0
-810 -662 0
-795 -854 0
-385 -495 0
-795 -525 0
-385 -555 0
-385 -575 0
-386 -476 0
-628 -817 0
-628 -801 0
-628 -819 0
-387 -716 0
-387 -761 0
-389 -419 0
-390 -400 0
-690 -410 0
-690 -420 0
-390 -661 0
-391 -401 0
-391 -471 0
-950 -402 0
-950 -412 0
-950 -462 0
-392 -482 0
-950 -532 0
-914 -413 0
-393 -423 0
-833 -453 0
-393 -463 0
-885 -929 0
-833 -523 0
-833 -938 0
-833 -573 0
-807 -773 0
-807 -849 0
-394 -434 0
-749 -454 0
-394 -464 0
-807 -474 0
-749 -484 0
-807 -524 0
-749 -544 0
-788 -902 0
-788 -565 0
-395 -595 0
-395 -605 0
-396 -446 0
-750 -870 0
-400 -661 0
-401 -411 0
-401 -481 0
-402 -948 0
-402 -940 0
-893 -824 0
-893 -423 0
-893 -433 0
-403 -493 0
-893 -543 0
-893 -553 0
-653 -444 0
-773 -454 0
-653 -880 0
-653 -871 0
-404 -494 0
-653 -913 0
-773 -564 0
-630 -821 0
-630 -816 0
-777 -822 0
-405 -495 0
-630 -902 0
-630 -911 0
-748 -555 0
-630 -605 0
-407 -706 0
-407 -487 0
-408 -498 0
-410 -420 0
-411 -421 0
-411 -491 0
-963 -948 0
-412 -432 0
-963 -502 0
-963 -552 0
-824 -917 0
-896 -433 0
-413 -443 0
-413 -473 0
-896 -881 0
-896 -967 0
-896 -543 0
-413 -563 0
-414 -504 0
-849 -931 0
-746 -435 0
-618 -445 0
-767 -465 0
-641 -505 0
-415 -535 0
-685 -446 0
-685 -870 0
-616 -815 0
-416 -486 0
-616 -855 0
-655 -802 0
-655 -875 0
-706 -487 0
-418 -428 0
-724 -488 0
-421 -431 0
-421 -501 0
-422 -442 0
-422 -492 0
-948 -502 0
-948 -512 0
-917 -433 0
-423 -443 0
-423 -881 0
-423 -513 0
-423 -563 0
-859 -823 0
-425 -585 0
-426 -496 0
-636 -556 0
-636 -802 0
-716 -761 0
-427 -497 0
-620 -597 0
-686 -478 0
-709 -439 0
-709 -687 0
-429 -589 0
-732 -440 0
-732 -450 0
-430 -704 0
-431 -441 0
-431 -511 0
-970 -442 0
-432 -502 0
-434 -514 0
-435 -505 0
-436 -815 0
-436 -817 0
-437 -507 0
-437 -557 0
-438 -508 0
-438 -558 0
-439 -687 0
-440 -450 0
-442 -512 0
-443 -503 0
-443 -513 0
-445 -515 0
-446 -850 0
-446 -855 0
-446 -802 0
-447 -812 0
-447 -831 0
-448 -568 0
-448 -798 0
-449 -599 0
-451 -461 0
-453 -523 0
-454 -871 0
-925 -574 0
-901 -505 0
-455 -882 0
-455 -887 0
-901 -575 0
-870 -815 0
-456 -526 0
-457 -527 0
-847 -784 0
-459 -579 0
-735 -470 0
-735 -480 0
-460 -490 0
-735 -703 0
-461 -471 0
-461 -521 0
-462 -472 0
-462 -522 0
-462 -532 0
-821 -515 0
-821 -545 0
-821 -595 0
-466 -738 0
-467 -537 0
-468 -538 0
-469 -729 0
-469 -654 0
-470 -480 0
-470 -703 0
-471 -481 0
-471 -531 0
-472 -542 0
-473 -881 0
-473 -533 0
-929 -583 0
-880 -514 0
-880 -524 0
-474 -594 0
-880 -604 0
-816 -515 0
-816 -911 0
-475 -595 0
-816 -605 0
-477 -547 0
-479 -539 0
-479 -559 0
-480 -703 0
-481 -491 0
-481 -541 0
-482 -492 0
-482 -502 0
-966 -940 0
-966 -552 0
-966 -582 0
-483 -503 0
-881 -967 0
-483 -533 0
-912 -553 0
-912 -603 0
-898 -544 0
-871 -574 0
-737 -499 0
-737 -509 0
-489 -677 0
-491 -501 0
-491 -551 0
-492 -940 0
-492 -552 0
-492 -592 0
-493 -967 0
-493 -563 0
-752 -506 0
-499 -509 0
-500 -708 0
-500 -637 0
-501 -511 0
-501 -561 0
-502 -512 0
-502 -552 0
-503 -938 0
-503 -553 0
-823 -585 0
-823 -605 0
-817 -875 0
-507 -557 0
-508 -558 0
-510 -520 0
-510 -659 0
-708 -637 0
-512 -562 0
-514 -544 0
-516 -566 0
-874 -596 0
-517 -567 0
-518 -598 0
-519 -569 0
-519 -772 0
-520 -659 0
-521 -531 0
-522 -532 0
-522 -940 0
-522 -572 0
-523 -930 0
-523 -553 0
-524 -931 0
-524 -604 0
-911 -605 0
-528 -578 0
-529 -622 0
-663 -753 0
-529 -766 0
-663 -609 0
-531 -541 0
-531 -571 0
-532 -572 0
-533 -563 0
-533 -593 0
-534 -913 0
-536 -546 0
-633 -779 0
-633 -597 0
-633 -607 0
-629 -656 0
-629 -711 0
-539 -559 0
-621 -693 0
-621 -590 0
-541 -551 0
-541 -581 0
-964 -552 0
-964 -562 0
-940 -572 0
-964 -582 0
-542 -592 0
-964 -602 0
-930 -553 0
-543 -573 0
-938 -583 0
-930 -593 0
-930 -603 0
-544 -913 0
-545 -585 0
-882 -595 0
-801 -763 0
-801 -586 0
-622 -766 0
-729 -654 0
-715 -560 0
-715 -570 0
-550 -600 0
-551 -561 0
-551 -591 0
-552 -582 0
-553 -603 0
-913 -574 0
-554 -584 0
-913 -594 0
-913 -604 0
-887 -565 0
-819 -802 0
-819 -875 0
-763 -586 0
-679 -812 0
-656 -711 0
-759 -588 0
-656 -860 0
-560 -570 0
-563 -583 0
-931 -574 0
-931 -604 0
-802 -875 0
-779 -827 0
-812 -831 0
-779 -607 0
-568 -798 0
-765 -608 0
-569 -772 0
-753 -609 0
-666 -580 0
-666 -610 0
-571 -581 0
-572 -582 0
-572 -592 0
-572 -602 0
-573 -583 0
-941 -594 0
-941 -604 0
-576 -606 0
-577 -587 0
-827 -607 0
-711 -860 0
-693 -590 0
-580 -610 0
-581 -591 0
-581 -601 0
-582 -602 0
-593 -603 0
-831 -607 0
1 2 3 4 6 7 8 9 10 0
11 12 13 14 16 17 18 19 20 0
21 22 23 24 26 27 28 29 30 0
31 32 33 34 36 37 38 39 40 0
41 42 43 44 46 47 48 49 50 0
51 52 53 54 56 57 58 59 60 0
61 62 63 64 66 67 68 69 70 0
71 72 73 74 76 77 78 79 80 0
81 82 83 84 86 87 88 89 90 0
91 92 93 94 96 97 98 99 100 0
101 102 103 104 106 107 108 109 110 0
111 112 113 114 116 117 118 119 120 0
121 122 123 124 126 127 128 129 130 0
131 132 133 134 136 137 138 139 140 0
141 142 143 144 146 147 148 149 150 0
151 152 153 154 156 157 158 159 160 0
161 162 163 164 166 167 168 169 170 0
171 172 173 174 176 177 178 179 180 0
181 182 183 184 186 187 188 189 190 0
191 192 193 194 196 197 198 199 200 0
201 202 203 204 206 207 208 209 210 0
211 212 213 214 216 217 218 219 220 0
221 222 223 224 226 227 228 229 230 0
231 232 233 234 236 237 238 239 240 0
241 242 243 244 246 247 248 249 250 0
251 252 253 254 256 257 258 259 260 0
261 262 263 264 266 267 268 269 270 0
271 272 273 274 276 277 278 279 280 0
281 282 283 284 286 287 288 289 290 0
291 292 293 294 296 297 298 299 300 0
311 312 313 314 316 317 318 319 320 0
321 322 323 324 326 327 328 329 330 0
331 332 333 334 336 337 338 339 340 0
341 342 343 344 346 347 348 349 350 0
351 352 353 354 356 357 358 359 360 0
361 362 363 364 366 367 368 369 370 0
371 372 373 374 376 377 378 379 380 0
381 382 383 384 386 387 388 389 390 0
391 392 393 394 396 397 398 399 400 0
401 402 403 404 406 407 408 409 410 0
411 412 413 414 416 417 418 419 420 0
421 422 423 424 426 427 428 429 430 0
431 432 433 434 436 437 438 439 440 0
441 442 443 444 446 447 448 449 450 0
451 452 453 454 456 457 458 459 460 0
461 462 463 464 466 467 468 469 470 0
471 472 473 474 476 477 478 479 480 0
481 482 483 484 486 487 488 489 490 0
491 492 493 494 496 497 498 499 500 0
501 502 503 504 506 507 508 509 510 0
511 512 513 514 516 517 518 519 520 0
521 522 523 524 526 527 528 529 530 0
531 532 533 534 536 537 538 539 540 0
541 542 543 544 546 547 548 549 550 0
551 552 553 554 556 557 558 559 560 0
561 562 563 564 566 567 568 569 570 0
571 572 573 574 576 577 578 579 580 0
581 582 583 584 586 587 588 589 590 0
591 592 593 594 596 597 598 599 600 0
601 602 603 604 606 607 608 609 610 0
301 302 303 304 305 306 307 308 309 310 0
611 -170 0
611 -280 0
612 -228 0
613 -672 0
613 -728 0
613 -379 0
614 -287 0
615 -740 0
615 -116 0
615 -186 0
616 -685 0
616 -326 0
616 -644 0
617 -840 0
617 -105 0
617 -175 0
618 -746 0
618 -435 0
618 -505 0
619 -137 0
620 -716 0
620 -387 0
620 -761 0
621 -690 0
621 -410 0
621 -420 0
622 -509 0
622 -499 0
622 -737 0
623 -160 0
624 -269 0
624 -665 0
625 -858 0
625 -55 0
626 -719 0
626 -278 0
627 -808 0
627 -861 0
628 -815 0
628 -870 0
629 -676 0
629 -268 0
629 -714 0
630 -887 0
630 -565 0
631 -813 0
631 -124 0
631 -214 0
632 -206 0
632 -691 0
632 -316 0
633 -784 0
633 -847 0
634 -741 0
634 -782 0
635 -781 0
635 -836 0
636 -817 0
636 -436 0
637 -590 0
637 -693 0
637 -621 0
638 -697 0
638 -360 0
638 -370 0
639 -270 0
640 -69 0
641 -767 0
641 -465 0
642 -785 0
642 -888 0
642 -274 0
643 -667 0
643 -209 0
643 -698 0
644 -742 0
644 -750 0
645 -60 0
645 -100 0
646 -747 0
646 -195 0
646 -285 0
647 -298 0
648 -620 0
648 -862 0
648 -789 0
649 -287 0
649 614 0
650 -198 0
651 -337 0
651 -619 0
651 -447 0
652 -327 0
653 -849 0
653 -931 0
654 -687 0
654 -709 0
654 -439 0
655 -685 0
655 -396 0
655 -801 0
655 -628 0
656 -759 0
656 -588 0
657 -775 0
657 -325 0
658 -329 0
658 -179 0
658 -695 0
659 -530 0
660 -300 0
660 -699 0
660 -639 0
661 -540 0
662 -793 0
662 -890 0
663 -529 0
663 -766 0
663 -622 0
664 -90 0
664 -718 0
664 -140 0
665 -643 0
665 -309 0
665 -713 0
666 -570 0
666 -560 0
666 -715 0
667 -149 0
668 -330 0
668 -720 0
668 -350 0
669 -249 0
669 -770 0
669 -89 0
670 -150 0
670 -30 0
670 -725 0
671 -270 0
671 639 0
672 -69 0
672 640 0
673 -216 0
673 -326 0
673 -803 0
673 -627 0
674 -895 0
674 -434 0
674 -514 0
675 -349 0
676 -378 0
676 -771 0
676 -612 0
677 -549 0
678 -317 0
679 -557 0
679 -437 0
679 -507 0
680 -278 0
680 -719 0
680 626 0
681 -308 0
681 -717 0
681 -548 0
682 -205 0
682 -385 0
682 -475 0
683 -210 0
683 -200 0
683 -721 0
684 -198 0
684 650 0
685 -416 0
685 -486 0
686 -488 0
686 -218 0
686 -724 0
687 -559 0
687 -479 0
687 -539 0
688 -327 0
688 652 0
689 -208 0
689 -118 0
689 -188 0
690 -390 0
690 -661 0
690 -400 0
691 -306 0
691 -296 0
691 -406 0
692 -187 0
692 -117 0
692 -614 0
693 -580 0
693 -666 0
693 -610 0
694 -280 0
694 -170 0
694 611 0
695 -319 0
695 -399 0
695 -79 0
696 -269 0
696 624 0
696 -665 0
697 -320 0
697 -380 0
697 -668 0
698 -289 0
698 -299 0
698 -129 0
699 -10 0
699 -250 0
699 -260 0
700 -100 0
700 645 0
700 -60 0
701 -310 0
701 -120 0
701 -130 0
702 -277 0
702 -831 0
703 -530 0
703 659 0
704 -540 0
704 661 0
705 -189 0
705 -658 0
705 -640 0
706 -417 0
706 -688 0
706 -127 0
707 -814 0
707 -872 0
708 -510 0
708 -659 0
708 -520 0
709 -429 0
709 -589 0
710 -843 0
710 -853 0
711 -578 0
711 -528 0
711 -799 0
712 -298 0
712 647 0
713 -139 0
713 -279 0
714 -178 0
714 -58 0
714 -108 0
715 -550 0
715 -600 0
716 -427 0
716 -497 0
717 -138 0
717 -128 0
718 -40 0
718 -70 0
719 -68 0
719 -398 0
720 -20 0
720 -340 0
721 -190 0
721 -180 0
722 -790 0
722 -825 0
722 -57 0
723 -339 0
723 -409 0
724 -418 0
724 -428 0
725 -160 0
725 623 0
726 -149 0
726 667 0
727 -297 0
727 -217 0
728 -349 0
728 675 0
729 -549 0
729 677 0
730 -317 0
730 678 0
731 -328 0
731 -388 0
732 -430 0
732 -704 0
733 -498 0
733 -408 0
734 -228 0
734 612 0
735 -460 0
735 -490 0
736 -220 0
736 -230 0
737 -489 0
737 -677 0
738 -476 0
738 -386 0
739 -337 0
740 -196 0
740 -632 0
741 -78 0
741 -148 0
741 -238 0
742 -216 0
742 -126 0
743 -477 0
743 -387 0
743 -789 0
744 -780 0
744 -25 0
744 -15 0
745 -136 0
745 -226 0
746 -786 0
746 -425 0
747 -295 0
747 -395 0
748 -777 0
748 -485 0
749 -807 0
749 -524 0
749 -474 0
750 -396 0
750 -286 0
751 -204 0
751 -304 0
752 -496 0
752 -426 0
753 -569 0
753 -772 0
753 -519 0
754 -19 0
755 -215 0
755 -265 0
755 -863 0
756 -205 0
756 -125 0
757 -416 0
757 -673 0
758 -841 0
758 -74 0
758 -631 0
759 -558 0
759 -438 0
759 -508 0
760 -137 0
760 619 0
761 -477 0
761 -547 0
762 -790 0
762 -267 0
763 -855 0
763 -616 0
764 -315 0
764 -901 0
764 -365 0
764 -275 0
765 -568 0
765 -448 0
765 -798 0
766 -579 0
766 -459 0
766 -369 0
767 -415 0
767 -535 0
768 -18 0
768 -48 0
768 -800 0
769 -811 0
769 -176 0
769 -707 0
770 -159 0
770 -39 0
771 -538 0
771 -468 0
772 -599 0
772 -449 0
773 -404 0
773 -494 0
774 -19 0
774 754 0
775 -215 0
775 -315 0
776 -314 0
776 -424 0
777 -405 0
777 -495 0
778 -135 0
778 -65 0
779 -812 0
779 -679 0
780 -195 0
780 -105 0
781 -77 0
781 -237 0
781 -147 0
782 -38 0
782 -248 0
782 -797 0
783 -326 0
783 -745 0
784 -537 0
784 -377 0
784 -467 0
785 -294 0
785 -384 0
786 -415 0
786 -657 0
787 -295 0
787 -185 0
787 -662 0
788 -395 0
788 -345 0
789 -57 0
789 -277 0
790 -107 0
790 -177 0
791 -337 0
791 -17 0
792 -348 0
792 -768 0
793 -405 0
793 -95 0
794 -846 0
794 -16 0
795 -455 0
795 -927 0
796 -873 0
796 -926 0
797 -158 0
797 -88 0
798 -598 0
798 -518 0
799 -368 0
799 -458 0
800 -168 0
800 -98 0
801 -546 0
801 -536 0
802 -874 0
802 -596 0
803 -336 0
803 -236 0
804 -97 0
804 -47 0
805 -304 0
805 -214 0
805 -144 0
806 -204 0
806 -124 0
806 -64 0
806 -134 0
807 -394 0
807 -464 0
808 -146 0
808 -745 0
809 -76 0
809 -627 0
809 -36 0
810 -385 0
810 -275 0
811 -276 0
811 -166 0
812 -567 0
812 -517 0
813 -194 0
813 -751 0
814 -106 0
814 -615 0
815 -466 0
815 -738 0
816 -475 0
816 -882 0
816 -595 0
817 -506 0
817 -752 0
818 -304 0
818 -749 0
818 -484 0
819 -556 0
819 -586 0
820 -376 0
820 -266 0
821 -465 0
821 -618 0
821 -535 0
822 -485 0
822 -235 0
823 -505 0
823 -641 0
824 -413 0
824 -877 0
824 -313 0
824 -323 0
825 -37 0
825 -27 0
826 -889 0
827 -577 0
827 -587 0
828 -176 0
828 -26 0
829 -66 0
829 -615 0
830 -404 0
830 -920 0
830 -94 0
831 -597 0
831 -620 0
832 -314 0
832 -144 0
832 -154 0
833 -885 0
833 -929 0
834 -17 0
834 -804 0
835 -63 0
835 -23 0
835 -943 0
836 -157 0
836 -87 0
837 -76 0
837 -346 0
838 -347 0
838 -865 0
839 -204 0
839 -94 0
839 -194 0
840 -185 0
840 -646 0
841 -294 0
841 -892 0
842 -135 0
842 -85 0
842 -710 0
842 -355 0
843 -145 0
843 -235 0
844 -214 0
844 -224 0
844 -84 0
845 -115 0
845 -764 0
846 -56 0
846 -66 0
847 -457 0
847 -527 0
848 -495 0
848 -335 0
849 -414 0
849 -504 0
850 -546 0
850 -738 0
851 -314 0
851 -104 0
852 -367 0
852 -633 0
853 -225 0
853 -155 0
854 -475 0
854 -165 0
855 -556 0
855 -636 0
856 -874 0
856 -446 0
857 -597 0
857 739 0
858 -115 0
858 -756 0
859 -425 0
859 -575 0
860 -608 0
860 -765 0
861 -156 0
861 -86 0
862 -167 0
862 -804 0
863 -465 0
863 -375 0
864 -145 0
864 -75 0
865 -247 0
865 -635 0
866 -134 0
866 -84 0
867 -194 0
867 -910 0
868 -394 0
868 -284 0
869 -905 0
869 -444 0
869 -924 0
870 -456 0
870 -526 0
871 -898 0
871 -544 0
872 -46 0
872 -96 0
873 -114 0
873 -24 0
874 -516 0
874 -566 0
875 -576 0
875 -606 0
876 -909 0
876 -949 0
877 -303 0
877 -213 0
878 -184 0
878 -758 0
879 -283 0
879 -373 0
880 -474 0
880 -594 0
881 -483 0
881 -553 0
881 -503 0
882 -545 0
882 -585 0
883 -75 0
883 -778 0
884 -335 0
884 -245 0
885 -393 0
885 -463 0
886 -123 0
886 -53 0
887 -555 0
887 -748 0
888 -284 0
888 -184 0
889 -193 0
889 -103 0
890 -45 0
890 -625 0
891 -224 0
891 -54 0
892 -134 0
892 -144 0
893 -403 0
893 -493 0
894 -246 0
894 -356 0
895 -324 0
895 -776 0
896 -413 0
896 -563 0
897 -576 0
897 -801 0
898 -484 0
898 -534 0
899 -313 0
899 -223 0
900 -366 0
900 -628 0
901 -455 0
901 -525 0
902 -515 0
902 -445 0
903 -95 0
903 -165 0
904 -85 0
904 -35 0
905 -224 0
905 -334 0
906 -424 0
906 -494 0
907 -203 0
907 -935 0
908 -921 0
908 -93 0
908 -163 0
909 -323 0
909 -333 0
909 -433 0
910 -104 0
910 -454 0
910 -254 0
911 -525 0
911 -575 0
912 -483 0
912 -533 0
913 -554 0
913 -584 0
914 -393 0
914 -877 0
915 -203 0
915 -113 0
916 -104 0
916 -34 0
916 -4 0
917 -423 0
917 -333 0
918 -213 0
918 -143 0
919 -234 0
919 -344 0
920 -174 0
920 -164 0
921 -293 0
921 -383 0
922 -374 0
922 -642 0
923 -15 0
923 -5 0
924 -154 0
924 -244 0
925 -454 0
925 -749 0
926 -44 0
926 -14 0
927 -365 0
927 -810 0
928 -6 0
928 -809 0
929 -473 0
929 -912 0
930 -543 0
930 -573 0
930 -583 0
931 -564 0
931 -773 0
932 -183 0
932 -363 0
932 -879 0
933 -113 0
933 -43 0
934 -383 0
934 -879 0
935 -133 0
935 -83 0
936 -273 0
936 -908 0
937 -143 0
937 -877 0
938 -543 0
938 -893 0
939 -272 0
939 -162 0
940 -542 0
940 -472 0
941 -574 0
941 -871 0
942 -282 0
942 -192 0
943 -73 0
943 -886 0
944 -322 0
944 -212 0
945 -332 0
945 -242 0
946 -382 0
946 -452 0
947 -202 0
947 -112 0
948 -422 0
948 -492 0
949 -233 0
949 -343 0
950 -392 0
950 -482 0
951 -122 0
951 -72 0
952 -173 0
952 -263 0
953 -292 0
953 -202 0
953 -412 0
954 -222 0
954 -142 0
955 -62 0
955 -12 0
956 -182 0
956 -92 0
957 -132 0
957 -82 0
958 -153 0
958 -243 0
959 -292 0
959 -392 0
960 -312 0
960 -302 0
961 -332 0
961 -432 0
962 -282 0
962 -372 0
963 -412 0
963 -562 0
964 -542 0
964 -592 0
965 -453 0
965 -253 0
966 -482 0
966 -532 0
967 -513 0
967 -593 0
968 -102 0
968 -42 0
969 -13 0
969 -835 0
970 -432 0
970 -945 0
971 -172 0
971 -362 0
972 -22 0
972 -955 0
973 -889 0
973 826 0
